\ENCODING=ISO-8859-1
\Problem name: IloCplex

Minimize
 obj: x3 + x6 + x9 + x12 + x15 + x18 + x21 + x24 + x27 + x30 + x33 + x36 + x39
      + x42 + x45 + x48 + x51 + x54 + x57 + x60
Subject To
 c1:  - x1 + x3  = 0
 c2:  - x4 + x6  = 0
 c3:  - x7 + x9  = 0
 c4:  - x10 + x12  = 0
 c5:  - x13 + x15  = 0
 c6:  - x16 + x18  = 0
 c7:  - x19 + x21  = 0
 c8:  - x22 + x24  = 0
 c9:  - x25 + x27  = 0
 c10: - x28 + x30  = 0
 c11: - x31 + x33  = 0
 c12: - x34 + x36  = 0
 c13: - x37 + x39  = 0
 c14: - x40 + x42  = 0
 c15: - x43 + x45  = 0
 c16: - x46 + x48  = 0
 c17: - x49 + x51  = 0
 c18: - x52 + x54  = 0
 c19: - x55 + x57  = 0
 c20: - x58 + x60  = 0
 c21: x2 - x61  = 46
 c22: x5 + x61 - x62  = 97
 c23: x8 + x62 - x63  = 30
 c24: x11 + x63 - x64  = 8
 c25: x14 + x64 - x65  = 23
 c26: x17 + x65 - x66  = 93
 c27: x20 + x66 - x67  = 40
 c28: x23 + x67 - x68  = 88
 c29: x26 + x68 - x69  = 99
 c30: x29 + x69 - x70  = 83
 c31: x32 + x70 - x71  = 79
 c32: x35 + x71 - x72  = 23
 c33: x38 + x72 - x73  = 37
 c34: x41 + x73 - x74  = 78
 c35: x44 + x74 - x75  = 70
 c36: x47 + x75 - x76  = 93
 c37: x50 + x76 - x77  = 82
 c38: x53 + x77 - x78  = 100
 c39: x56 + x78 - x79  = 11
 c40: x59 + x79 - x80  = 9
 c41: x80  = 0
 c42: x61  = 0
Bounds
      x1 Free
      x2 >= 0
      x4 Free
      x5 >= 0
      x7 Free
      x8 >= 0
      x10 Free
      x11 >= 0
      x13 Free
      x14 >= 0
      x16 Free
      x17 >= 0
      x19 Free
      x20 >= 0
      x22 Free
      x23 >= 0
      x25 Free
      x26 >= 0
      x28 Free
      x29 >= 0
      x31 Free
      x32 >= 0
      x34 Free
      x35 >= 0
      x37 Free
      x38 >= 0
      x40 Free
      x41 >= 0
      x43 Free
      x44 >= 0
      x46 Free
      x47 >= 0
      x49 Free
      x50 >= 0
      x52 Free
      x53 >= 0
      x55 Free
      x56 >= 0
      x58 Free
      x59 >= 0
 0 <= x61 <= 100
 0 <= x62 <= 100
 0 <= x63 <= 100
 0 <= x64 <= 100
 0 <= x65 <= 100
 0 <= x66 <= 100
 0 <= x67 <= 100
 0 <= x68 <= 100
 0 <= x69 <= 100
 0 <= x70 <= 100
 0 <= x71 <= 100
 0 <= x72 <= 100
 0 <= x73 <= 100
 0 <= x74 <= 100
 0 <= x75 <= 100
 0 <= x76 <= 100
 0 <= x77 <= 100
 0 <= x78 <= 100
 0 <= x79 <= 100
 0 <= x80 <= 100
Generals
 x2  x5  x8  x11  x14  x17  x20  x23  x26  x29  x32  x35  x38  x41  x44  x47 
 x50  x53  x56  x59  x61  x62  x63  x64  x65  x66  x67  x68  x69  x70  x71 
 x72  x73  x74  x75  x76  x77  x78  x79  x80 
Pwl
 p1:  x1 = x2 2.20000004768372 (25, 55.0000011920929) (50, 167.500001192093)
      (75, 240.000003576279) 1.5
 p2:  x4 = x5 2.20000004768372 (25, 55.0000011920929) (50, 167.500001192093)
      (75, 240.000003576279) 1.5
 p3:  x7 = x8 2.20000004768372 (25, 55.0000011920929) (50, 167.500001192093)
      (75, 240.000003576279) 1.5
 p4:  x10 = x11 2.20000004768372 (25, 55.0000011920929) (50, 167.500001192093)
      (75, 240.000003576279) 1.5
 p5:  x13 = x14 2.20000004768372 (25, 55.0000011920929) (50, 167.500001192093)
      (75, 240.000003576279) 1.5
 p6:  x16 = x17 2.20000004768372 (25, 55.0000011920929) (50, 167.500001192093)
      (75, 240.000003576279) 1.5
 p7:  x19 = x20 2.20000004768372 (25, 55.0000011920929) (50, 167.500001192093)
      (75, 240.000003576279) 1.5
 p8:  x22 = x23 2.20000004768372 (25, 55.0000011920929) (50, 167.500001192093)
      (75, 240.000003576279) 1.5
 p9:  x25 = x26 2.20000004768372 (25, 55.0000011920929) (50, 167.500001192093)
      (75, 240.000003576279) 1.5
 p10: x28 = x29 2.20000004768372 (25, 55.0000011920929) (50, 167.500001192093)
      (75, 240.000003576279) 1.5
 p11: x31 = x32 2.20000004768372 (25, 55.0000011920929) (50, 167.500001192093)
      (75, 240.000003576279) 1.5
 p12: x34 = x35 2.20000004768372 (25, 55.0000011920929) (50, 167.500001192093)
      (75, 240.000003576279) 1.5
 p13: x37 = x38 2.20000004768372 (25, 55.0000011920929) (50, 167.500001192093)
      (75, 240.000003576279) 1.5
 p14: x40 = x41 2.20000004768372 (25, 55.0000011920929) (50, 167.500001192093)
      (75, 240.000003576279) 1.5
 p15: x43 = x44 2.20000004768372 (25, 55.0000011920929) (50, 167.500001192093)
      (75, 240.000003576279) 1.5
 p16: x46 = x47 2.20000004768372 (25, 55.0000011920929) (50, 167.500001192093)
      (75, 240.000003576279) 1.5
 p17: x49 = x50 2.20000004768372 (25, 55.0000011920929) (50, 167.500001192093)
      (75, 240.000003576279) 1.5
 p18: x52 = x53 2.20000004768372 (25, 55.0000011920929) (50, 167.500001192093)
      (75, 240.000003576279) 1.5
 p19: x55 = x56 2.20000004768372 (25, 55.0000011920929) (50, 167.500001192093)
      (75, 240.000003576279) 1.5
 p20: x58 = x59 2.20000004768372 (25, 55.0000011920929) (50, 167.500001192093)
      (75, 240.000003576279) 1.5
End
